04_frontend_stage/rtl-watchdog/formal/watchdog_bmc/model/design_smt2.smt2
; SMT-LIBv2 description generated by Yosys 0.65+71 (git sha1 e56c6a954, clang++ 18.1.8 -fPIC -O3)
; yosys-smt2-module EF_WDT32_WB_wrapper
(declare-sort |EF_WDT32_WB_wrapper_s| 0)
(declare-fun |EF_WDT32_WB_wrapper_is| (|EF_WDT32_WB_wrapper_s|) Bool)
; yosys-smt2-anyseq EF_WDT32_WB_wrapper#0 1 $auto$setundef.cc:550:execute$162
; yosys-smt2-witness {"offset": 0, "path": ["\\_witness_", "\\anyseq_auto_setundef_cc_550_execute_162"], "smtname": 0, "smtoffset": 0, "type": "seq", "width": 1}
(declare-fun |EF_WDT32_WB_wrapper#0| (|EF_WDT32_WB_wrapper_s|) (_ BitVec 1)) ; \_witness_.anyseq_auto_setundef_cc_550_execute_162
; yosys-smt2-wire _witness_.anyseq_auto_setundef_cc_550_execute_162 1
(define-fun |EF_WDT32_WB_wrapper_n _witness_.anyseq_auto_setundef_cc_550_execute_162| ((state |EF_WDT32_WB_wrapper_s|)) Bool (= ((_ extract 0 0) (|EF_WDT32_WB_wrapper#0| state)) #b1))
; yosys-smt2-anyinit EF_WDT32_WB_wrapper#1 1 watchdog.v:110.3-117.8
; yosys-smt2-witness {"offset": 0, "path": ["\\_witness_", "\\anyinit_flatten_u_ef_wdt__auto_ff_cc_337_slice_113"], "smtname": 1, "smtoffset": 0, "type": "init", "width": 1}
(declare-fun |EF_WDT32_WB_wrapper#1| (|EF_WDT32_WB_wrapper_s|) (_ BitVec 1)) ; \_witness_.anyinit_flatten_u_ef_wdt__auto_ff_cc_337_slice_113
; yosys-smt2-register _witness_.anyinit_flatten_u_ef_wdt__auto_ff_cc_337_slice_113 1
; yosys-smt2-wire _witness_.anyinit_flatten_u_ef_wdt__auto_ff_cc_337_slice_113 1
(define-fun |EF_WDT32_WB_wrapper_n _witness_.anyinit_flatten_u_ef_wdt__auto_ff_cc_337_slice_113| ((state |EF_WDT32_WB_wrapper_s|)) Bool (= ((_ extract 0 0) (|EF_WDT32_WB_wrapper#1| state)) #b1))
; yosys-smt2-anyinit EF_WDT32_WB_wrapper#2 1 watchdog.v:85.3-87.89
; yosys-smt2-witness {"offset": 0, "path": ["\\_witness_", "\\anyinit_flatten_u_ef_wdt__auto_ff_cc_337_slice_116"], "smtname": 2, "smtoffset": 0, "type": "init", "width": 1}
(declare-fun |EF_WDT32_WB_wrapper#2| (|EF_WDT32_WB_wrapper_s|) (_ BitVec 1)) ; \_witness_.anyinit_flatten_u_ef_wdt__auto_ff_cc_337_slice_116
; yosys-smt2-register _witness_.anyinit_flatten_u_ef_wdt__auto_ff_cc_337_slice_116 1
; yosys-smt2-wire _witness_.anyinit_flatten_u_ef_wdt__auto_ff_cc_337_slice_116 1
(define-fun |EF_WDT32_WB_wrapper_n _witness_.anyinit_flatten_u_ef_wdt__auto_ff_cc_337_slice_116| ((state |EF_WDT32_WB_wrapper_s|)) Bool (= ((_ extract 0 0) (|EF_WDT32_WB_wrapper#2| state)) #b1))
; yosys-smt2-anyinit EF_WDT32_WB_wrapper#3 32 watchdog.v:79.3-81.84
; yosys-smt2-witness {"offset": 0, "path": ["\\_witness_", "\\anyinit_flatten_u_ef_wdt__auto_ff_cc_337_slice_119"], "smtname": 3, "smtoffset": 0, "type": "init", "width": 32}
(declare-fun |EF_WDT32_WB_wrapper#3| (|EF_WDT32_WB_wrapper_s|) (_ BitVec 32)) ; \_witness_.anyinit_flatten_u_ef_wdt__auto_ff_cc_337_slice_119
; yosys-smt2-register _witness_.anyinit_flatten_u_ef_wdt__auto_ff_cc_337_slice_119 32
; yosys-smt2-wire _witness_.anyinit_flatten_u_ef_wdt__auto_ff_cc_337_slice_119 32
(define-fun |EF_WDT32_WB_wrapper_n _witness_.anyinit_flatten_u_ef_wdt__auto_ff_cc_337_slice_119| ((state |EF_WDT32_WB_wrapper_s|)) (_ BitVec 32) (|EF_WDT32_WB_wrapper#3| state))
; yosys-smt2-anyinit EF_WDT32_WB_wrapper#4 1 watchdog.v:99.3-101.79
; yosys-smt2-witness {"offset": 0, "path": ["\\_witness_", "\\anyinit_flatten_u_ef_wdt__auto_ff_cc_337_slice_120"], "smtname": 4, "smtoffset": 0, "type": "init", "width": 1}
(declare-fun |EF_WDT32_WB_wrapper#4| (|EF_WDT32_WB_wrapper_s|) (_ BitVec 1)) ; \_witness_.anyinit_flatten_u_ef_wdt__auto_ff_cc_337_slice_120
; yosys-smt2-register _witness_.anyinit_flatten_u_ef_wdt__auto_ff_cc_337_slice_120 1
; yosys-smt2-wire _witness_.anyinit_flatten_u_ef_wdt__auto_ff_cc_337_slice_120 1
(define-fun |EF_WDT32_WB_wrapper_n _witness_.anyinit_flatten_u_ef_wdt__auto_ff_cc_337_slice_120| ((state |EF_WDT32_WB_wrapper_s|)) Bool (= ((_ extract 0 0) (|EF_WDT32_WB_wrapper#4| state)) #b1))
; yosys-smt2-anyinit EF_WDT32_WB_wrapper#5 1 watchdog.v:102.3-105.25
; yosys-smt2-witness {"offset": 0, "path": ["\\_witness_", "\\anyinit_flatten_u_ef_wdt__procdff_100"], "smtname": 5, "smtoffset": 0, "type": "init", "width": 1}
(declare-fun |EF_WDT32_WB_wrapper#5| (|EF_WDT32_WB_wrapper_s|) (_ BitVec 1)) ; \_witness_.anyinit_flatten_u_ef_wdt__procdff_100
; yosys-smt2-register _witness_.anyinit_flatten_u_ef_wdt__procdff_100 1
; yosys-smt2-wire _witness_.anyinit_flatten_u_ef_wdt__procdff_100 1
(define-fun |EF_WDT32_WB_wrapper_n _witness_.anyinit_flatten_u_ef_wdt__procdff_100| ((state |EF_WDT32_WB_wrapper_s|)) Bool (= ((_ extract 0 0) (|EF_WDT32_WB_wrapper#5| state)) #b1))
; yosys-smt2-anyinit EF_WDT32_WB_wrapper#6 1 watchdog.v:140.3-143.24
; yosys-smt2-witness {"offset": 0, "path": ["\\_witness_", "\\anyinit_flatten_u_ef_wdt__procdff_89"], "smtname": 6, "smtoffset": 0, "type": "init", "width": 1}
(declare-fun |EF_WDT32_WB_wrapper#6| (|EF_WDT32_WB_wrapper_s|) (_ BitVec 1)) ; \_witness_.anyinit_flatten_u_ef_wdt__procdff_89
; yosys-smt2-register _witness_.anyinit_flatten_u_ef_wdt__procdff_89 1
; yosys-smt2-wire _witness_.anyinit_flatten_u_ef_wdt__procdff_89 1
(define-fun |EF_WDT32_WB_wrapper_n _witness_.anyinit_flatten_u_ef_wdt__procdff_89| ((state |EF_WDT32_WB_wrapper_s|)) Bool (= ((_ extract 0 0) (|EF_WDT32_WB_wrapper#6| state)) #b1))
; yosys-smt2-anyinit EF_WDT32_WB_wrapper#7 32 EF_WDT32.v:35.2-45.5
; yosys-smt2-witness {"offset": 0, "path": ["\\_witness_", "\\anyinit_flatten_u_ef_wdt__instance_to_wrap__procdff_86"], "smtname": 7, "smtoffset": 0, "type": "init", "width": 32}
(declare-fun |EF_WDT32_WB_wrapper#7| (|EF_WDT32_WB_wrapper_s|) (_ BitVec 32)) ; \_witness_.anyinit_flatten_u_ef_wdt__instance_to_wrap__procdff_86
; yosys-smt2-register _witness_.anyinit_flatten_u_ef_wdt__instance_to_wrap__procdff_86 32
; yosys-smt2-wire _witness_.anyinit_flatten_u_ef_wdt__instance_to_wrap__procdff_86 32
(define-fun |EF_WDT32_WB_wrapper_n _witness_.anyinit_flatten_u_ef_wdt__instance_to_wrap__procdff_86| ((state |EF_WDT32_WB_wrapper_s|)) (_ BitVec 32) (|EF_WDT32_WB_wrapper#7| state))
(declare-fun |EF_WDT32_WB_wrapper#8| (|EF_WDT32_WB_wrapper_s|) (_ BitVec 1)) ; \wb_rst_ni
(define-fun |EF_WDT32_WB_wrapper#9| ((state |EF_WDT32_WB_wrapper_s|)) (_ BitVec 1) (ite (= ((_ extract 0 0) (|EF_WDT32_WB_wrapper#8| state)) #b1) (|EF_WDT32_WB_wrapper#1| state) #b0)) ; \u_ef_wdt.RIS_REG
(define-fun |EF_WDT32_WB_wrapper#10| ((state |EF_WDT32_WB_wrapper_s|)) (_ BitVec 1) (ite (= ((_ extract 0 0) (|EF_WDT32_WB_wrapper#8| state)) #b1) (|EF_WDT32_WB_wrapper#4| state) #b0)) ; \u_ef_wdt.IM_REG
(define-fun |EF_WDT32_WB_wrapper#11| ((state |EF_WDT32_WB_wrapper_s|)) (_ BitVec 1) (bvand (|EF_WDT32_WB_wrapper#9| state) (|EF_WDT32_WB_wrapper#10| state))) ; \u_ef_wdt.IRQ
; yosys-smt2-wire irq_combined 1
(define-fun |EF_WDT32_WB_wrapper_n irq_combined| ((state |EF_WDT32_WB_wrapper_s|)) Bool (= ((_ extract 0 0) (|EF_WDT32_WB_wrapper#11| state)) #b1))
; yosys-smt2-output irq_warn_o 1
; yosys-smt2-wire irq_warn_o 1
(define-fun |EF_WDT32_WB_wrapper_n irq_warn_o| ((state |EF_WDT32_WB_wrapper_s|)) Bool (= ((_ extract 0 0) (|EF_WDT32_WB_wrapper#11| state)) #b1))
; yosys-smt2-output rst_req_o 1
; yosys-smt2-wire rst_req_o 1
(define-fun |EF_WDT32_WB_wrapper_n rst_req_o| ((state |EF_WDT32_WB_wrapper_s|)) Bool false)
(define-fun |EF_WDT32_WB_wrapper#12| ((state |EF_WDT32_WB_wrapper_s|)) (_ BitVec 1) (ite (= ((_ extract 0 0) (|EF_WDT32_WB_wrapper#8| state)) #b1) (|EF_WDT32_WB_wrapper#5| state) #b0)) ; \u_ef_wdt.IC_REG
; yosys-smt2-wire u_ef_wdt.IC_REG 1
(define-fun |EF_WDT32_WB_wrapper_n u_ef_wdt.IC_REG| ((state |EF_WDT32_WB_wrapper_s|)) Bool (= ((_ extract 0 0) (|EF_WDT32_WB_wrapper#12| state)) #b1))
; yosys-smt2-wire u_ef_wdt.IM_REG 1
(define-fun |EF_WDT32_WB_wrapper_n u_ef_wdt.IM_REG| ((state |EF_WDT32_WB_wrapper_s|)) Bool (= ((_ extract 0 0) (|EF_WDT32_WB_wrapper#10| state)) #b1))
; yosys-smt2-wire u_ef_wdt.IRQ 1
(define-fun |EF_WDT32_WB_wrapper_n u_ef_wdt.IRQ| ((state |EF_WDT32_WB_wrapper_s|)) Bool (= ((_ extract 0 0) (|EF_WDT32_WB_wrapper#11| state)) #b1))
; yosys-smt2-wire u_ef_wdt.MIS_REG 1
(define-fun |EF_WDT32_WB_wrapper_n u_ef_wdt.MIS_REG| ((state |EF_WDT32_WB_wrapper_s|)) Bool (= ((_ extract 0 0) (|EF_WDT32_WB_wrapper#11| state)) #b1))
; yosys-smt2-wire u_ef_wdt.RIS_REG 1
(define-fun |EF_WDT32_WB_wrapper_n u_ef_wdt.RIS_REG| ((state |EF_WDT32_WB_wrapper_s|)) Bool (= ((_ extract 0 0) (|EF_WDT32_WB_wrapper#9| state)) #b1))
(define-fun |EF_WDT32_WB_wrapper#13| ((state |EF_WDT32_WB_wrapper_s|)) (_ BitVec 1) (ite (= ((_ extract 0 0) (|EF_WDT32_WB_wrapper#8| state)) #b1) (|EF_WDT32_WB_wrapper#2| state) #b0)) ; \u_ef_wdt.control_REG
; yosys-smt2-wire u_ef_wdt.WDTEN 1
(define-fun |EF_WDT32_WB_wrapper_n u_ef_wdt.WDTEN| ((state |EF_WDT32_WB_wrapper_s|)) Bool (= ((_ extract 0 0) (|EF_WDT32_WB_wrapper#13| state)) #b1))
(define-fun |EF_WDT32_WB_wrapper#14| ((state |EF_WDT32_WB_wrapper_s|)) (_ BitVec 32) (ite (= ((_ extract 0 0) (|EF_WDT32_WB_wrapper#8| state)) #b1) (|EF_WDT32_WB_wrapper#3| state) #b00000000000000000000000000000000)) ; \u_ef_wdt.load_REG
; yosys-smt2-wire u_ef_wdt.WDTLOAD 32
(define-fun |EF_WDT32_WB_wrapper_n u_ef_wdt.WDTLOAD| ((state |EF_WDT32_WB_wrapper_s|)) (_ BitVec 32) (|EF_WDT32_WB_wrapper#14| state))
(define-fun |EF_WDT32_WB_wrapper#15| ((state |EF_WDT32_WB_wrapper_s|)) (_ BitVec 32) (ite (= ((_ extract 0 0) (|EF_WDT32_WB_wrapper#8| state)) #b1) (|EF_WDT32_WB_wrapper#7| state) #b00000000000000000000000000000000)) ; \u_ef_wdt.instance_to_wrap.WDTMR
; yosys-smt2-wire u_ef_wdt.WDTMR 32
(define-fun |EF_WDT32_WB_wrapper_n u_ef_wdt.WDTMR| ((state |EF_WDT32_WB_wrapper_s|)) (_ BitVec 32) (|EF_WDT32_WB_wrapper#15| state))
(define-fun |EF_WDT32_WB_wrapper#16| ((state |EF_WDT32_WB_wrapper_s|)) Bool (not (or  (= ((_ extract 0 0) (|EF_WDT32_WB_wrapper#15| state)) #b1) (= ((_ extract 1 1) (|EF_WDT32_WB_wrapper#15| state)) #b1) (= ((_ extract 2 2) (|EF_WDT32_WB_wrapper#15| state)) #b1) (= ((_ extract 3 3) (|EF_WDT32_WB_wrapper#15| state)) #b1) (= ((_ extract 4 4) (|EF_WDT32_WB_wrapper#15| state)) #b1) (= ((_ extract 5 5) (|EF_WDT32_WB_wrapper#15| state)) #b1) (= ((_ extract 6 6) (|EF_WDT32_WB_wrapper#15| state)) #b1) (= ((_ extract 7 7) (|EF_WDT32_WB_wrapper#15| state)) #b1) (= ((_ extract 8 8) (|EF_WDT32_WB_wrapper#15| state)) #b1) (= ((_ extract 9 9) (|EF_WDT32_WB_wrapper#15| state)) #b1) (= ((_ extract 10 10) (|EF_WDT32_WB_wrapper#15| state)) #b1) (= ((_ extract 11 11) (|EF_WDT32_WB_wrapper#15| state)) #b1) (= ((_ extract 12 12) (|EF_WDT32_WB_wrapper#15| state)) #b1) (= ((_ extract 13 13) (|EF_WDT32_WB_wrapper#15| state)) #b1) (= ((_ extract 14 14) (|EF_WDT32_WB_wrapper#15| state)) #b1) (= ((_ extract 15 15) (|EF_WDT32_WB_wrapper#15| state)) #b1) (= ((_ extract 16 16) (|EF_WDT32_WB_wrapper#15| state)) #b1) (= ((_ extract 17 17) (|EF_WDT32_WB_wrapper#15| state)) #b1) (= ((_ extract 18 18) (|EF_WDT32_WB_wrapper#15| state)) #b1) (= ((_ extract 19 19) (|EF_WDT32_WB_wrapper#15| state)) #b1) (= ((_ extract 20 20) (|EF_WDT32_WB_wrapper#15| state)) #b1) (= ((_ extract 21 21) (|EF_WDT32_WB_wrapper#15| state)) #b1) (= ((_ extract 22 22) (|EF_WDT32_WB_wrapper#15| state)) #b1) (= ((_ extract 23 23) (|EF_WDT32_WB_wrapper#15| state)) #b1) (= ((_ extract 24 24) (|EF_WDT32_WB_wrapper#15| state)) #b1) (= ((_ extract 25 25) (|EF_WDT32_WB_wrapper#15| state)) #b1) (= ((_ extract 26 26) (|EF_WDT32_WB_wrapper#15| state)) #b1) (= ((_ extract 27 27) (|EF_WDT32_WB_wrapper#15| state)) #b1) (= ((_ extract 28 28) (|EF_WDT32_WB_wrapper#15| state)) #b1) (= ((_ extract 29 29) (|EF_WDT32_WB_wrapper#15| state)) #b1) (= ((_ extract 30 30) (|EF_WDT32_WB_wrapper#15| state)) #b1) (= ((_ extract 31 31) (|EF_WDT32_WB_wrapper#15| state)) #b1)))) ; $flatten\u_ef_wdt.\instance_to_wrap.$eq$EF_WDT32.v:32$50_Y
(define-fun |EF_WDT32_WB_wrapper#17| ((state |EF_WDT32_WB_wrapper_s|)) (_ BitVec 1) (bvand (|EF_WDT32_WB_wrapper#13| state) (ite (|EF_WDT32_WB_wrapper#16| state) #b1 #b0))) ; \u_ef_wdt.WDTTO
; yosys-smt2-wire u_ef_wdt.WDTTO 1
(define-fun |EF_WDT32_WB_wrapper_n u_ef_wdt.WDTTO| ((state |EF_WDT32_WB_wrapper_s|)) Bool (= ((_ extract 0 0) (|EF_WDT32_WB_wrapper#17| state)) #b1))
(define-fun |EF_WDT32_WB_wrapper#18| ((state |EF_WDT32_WB_wrapper_s|)) (_ BitVec 1) (ite (= ((_ extract 0 0) (|EF_WDT32_WB_wrapper#8| state)) #b1) (|EF_WDT32_WB_wrapper#6| state) #b0)) ; \u_ef_wdt.ack_o
; yosys-smt2-wire u_ef_wdt.ack_o 1
(define-fun |EF_WDT32_WB_wrapper_n u_ef_wdt.ack_o| ((state |EF_WDT32_WB_wrapper_s|)) Bool (= ((_ extract 0 0) (|EF_WDT32_WB_wrapper#18| state)) #b1))
(declare-fun |EF_WDT32_WB_wrapper#19| (|EF_WDT32_WB_wrapper_s|) (_ BitVec 32)) ; \wb_adr_i
; yosys-smt2-wire u_ef_wdt.adr_i 32
(define-fun |EF_WDT32_WB_wrapper_n u_ef_wdt.adr_i| ((state |EF_WDT32_WB_wrapper_s|)) (_ BitVec 32) (|EF_WDT32_WB_wrapper#19| state))
(declare-fun |EF_WDT32_WB_wrapper#20| (|EF_WDT32_WB_wrapper_s|) Bool) ; \wb_clk_i
; yosys-smt2-wire u_ef_wdt.clk 1
; yosys-smt2-clock u_ef_wdt.clk posedge
(define-fun |EF_WDT32_WB_wrapper_n u_ef_wdt.clk| ((state |EF_WDT32_WB_wrapper_s|)) Bool (|EF_WDT32_WB_wrapper#20| state))
; yosys-smt2-wire u_ef_wdt.clk_g 1
; yosys-smt2-clock u_ef_wdt.clk_g posedge
(define-fun |EF_WDT32_WB_wrapper_n u_ef_wdt.clk_g| ((state |EF_WDT32_WB_wrapper_s|)) Bool (|EF_WDT32_WB_wrapper#20| state))
; yosys-smt2-wire u_ef_wdt.clk_gate_cell.clk 1
; yosys-smt2-clock u_ef_wdt.clk_gate_cell.clk posedge
(define-fun |EF_WDT32_WB_wrapper_n u_ef_wdt.clk_gate_cell.clk| ((state |EF_WDT32_WB_wrapper_s|)) Bool (|EF_WDT32_WB_wrapper#20| state))
; yosys-smt2-wire u_ef_wdt.clk_gate_cell.clk_o 1
; yosys-smt2-clock u_ef_wdt.clk_gate_cell.clk_o posedge
(define-fun |EF_WDT32_WB_wrapper_n u_ef_wdt.clk_gate_cell.clk_o| ((state |EF_WDT32_WB_wrapper_s|)) Bool (|EF_WDT32_WB_wrapper#20| state))
; yosys-smt2-wire u_ef_wdt.clk_i 1
; yosys-smt2-clock u_ef_wdt.clk_i posedge
(define-fun |EF_WDT32_WB_wrapper_n u_ef_wdt.clk_i| ((state |EF_WDT32_WB_wrapper_s|)) Bool (|EF_WDT32_WB_wrapper#20| state))
; yosys-smt2-wire u_ef_wdt.control_REG 1
(define-fun |EF_WDT32_WB_wrapper_n u_ef_wdt.control_REG| ((state |EF_WDT32_WB_wrapper_s|)) Bool (= ((_ extract 0 0) (|EF_WDT32_WB_wrapper#13| state)) #b1))
(declare-fun |EF_WDT32_WB_wrapper#21| (|EF_WDT32_WB_wrapper_s|) Bool) ; \wb_cyc_i
; yosys-smt2-wire u_ef_wdt.cyc_i 1
(define-fun |EF_WDT32_WB_wrapper_n u_ef_wdt.cyc_i| ((state |EF_WDT32_WB_wrapper_s|)) Bool (|EF_WDT32_WB_wrapper#21| state))
(declare-fun |EF_WDT32_WB_wrapper#22| (|EF_WDT32_WB_wrapper_s|) (_ BitVec 32)) ; \wb_dat_i
; yosys-smt2-wire u_ef_wdt.dat_i 32
(define-fun |EF_WDT32_WB_wrapper_n u_ef_wdt.dat_i| ((state |EF_WDT32_WB_wrapper_s|)) (_ BitVec 32) (|EF_WDT32_WB_wrapper#22| state))
(define-fun |EF_WDT32_WB_wrapper#23| ((state |EF_WDT32_WB_wrapper_s|)) Bool (= ((_ extract 15 0) (|EF_WDT32_WB_wrapper#19| state)) #b1111111100001100)) ; $flatten\u_ef_wdt.$eq$watchdog.v:104$23_Y
(define-fun |EF_WDT32_WB_wrapper#24| ((state |EF_WDT32_WB_wrapper_s|)) (_ BitVec 32) (ite (|EF_WDT32_WB_wrapper#23| state) (concat #b0000000000000000000000000000000 (|EF_WDT32_WB_wrapper#12| state)) #b11011110101011011011111011101111)) ; $flatten\u_ef_wdt.$ternary$watchdog.v:137$36_Y
(define-fun |EF_WDT32_WB_wrapper#25| ((state |EF_WDT32_WB_wrapper_s|)) Bool (= ((_ extract 15 0) (|EF_WDT32_WB_wrapper#19| state)) #b1111111100001000)) ; $flatten\u_ef_wdt.$eq$watchdog.v:136$33_Y
(define-fun |EF_WDT32_WB_wrapper#26| ((state |EF_WDT32_WB_wrapper_s|)) (_ BitVec 32) (ite (|EF_WDT32_WB_wrapper#25| state) (concat #b0000000000000000000000000000000 (|EF_WDT32_WB_wrapper#9| state)) (|EF_WDT32_WB_wrapper#24| state))) ; $flatten\u_ef_wdt.$ternary$watchdog.v:136$38_Y
(define-fun |EF_WDT32_WB_wrapper#27| ((state |EF_WDT32_WB_wrapper_s|)) Bool (= ((_ extract 15 0) (|EF_WDT32_WB_wrapper#19| state)) #b1111111100000100)) ; $flatten\u_ef_wdt.$eq$watchdog.v:135$32_Y
(define-fun |EF_WDT32_WB_wrapper#28| ((state |EF_WDT32_WB_wrapper_s|)) (_ BitVec 32) (ite (|EF_WDT32_WB_wrapper#27| state) (concat #b0000000000000000000000000000000 (|EF_WDT32_WB_wrapper#11| state)) (|EF_WDT32_WB_wrapper#26| state))) ; $flatten\u_ef_wdt.$ternary$watchdog.v:135$40_Y
(define-fun |EF_WDT32_WB_wrapper#29| ((state |EF_WDT32_WB_wrapper_s|)) Bool (= ((_ extract 15 0) (|EF_WDT32_WB_wrapper#19| state)) #b1111111100000000)) ; $flatten\u_ef_wdt.$eq$watchdog.v:101$20_Y
(define-fun |EF_WDT32_WB_wrapper#30| ((state |EF_WDT32_WB_wrapper_s|)) (_ BitVec 32) (ite (|EF_WDT32_WB_wrapper#29| state) (concat #b0000000000000000000000000000000 (|EF_WDT32_WB_wrapper#10| state)) (|EF_WDT32_WB_wrapper#28| state))) ; $flatten\u_ef_wdt.$ternary$watchdog.v:134$42_Y
(define-fun |EF_WDT32_WB_wrapper#31| ((state |EF_WDT32_WB_wrapper_s|)) Bool (= ((_ extract 15 0) (|EF_WDT32_WB_wrapper#19| state)) #b0000000000001000)) ; $flatten\u_ef_wdt.$eq$watchdog.v:133$30_Y
(define-fun |EF_WDT32_WB_wrapper#32| ((state |EF_WDT32_WB_wrapper_s|)) (_ BitVec 32) (ite (|EF_WDT32_WB_wrapper#31| state) (concat #b0000000000000000000000000000000 (|EF_WDT32_WB_wrapper#13| state)) (|EF_WDT32_WB_wrapper#30| state))) ; $flatten\u_ef_wdt.$ternary$watchdog.v:133$44_Y
(define-fun |EF_WDT32_WB_wrapper#33| ((state |EF_WDT32_WB_wrapper_s|)) Bool (= ((_ extract 15 0) (|EF_WDT32_WB_wrapper#19| state)) #b0000000000000100)) ; $flatten\u_ef_wdt.$eq$watchdog.v:132$29_Y
(define-fun |EF_WDT32_WB_wrapper#34| ((state |EF_WDT32_WB_wrapper_s|)) (_ BitVec 32) (ite (|EF_WDT32_WB_wrapper#33| state) (|EF_WDT32_WB_wrapper#14| state) (|EF_WDT32_WB_wrapper#32| state))) ; $flatten\u_ef_wdt.$ternary$watchdog.v:132$45_Y
(define-fun |EF_WDT32_WB_wrapper#35| ((state |EF_WDT32_WB_wrapper_s|)) Bool (not (or  (= ((_ extract 0 0) (|EF_WDT32_WB_wrapper#19| state)) #b1) (= ((_ extract 1 1) (|EF_WDT32_WB_wrapper#19| state)) #b1) (= ((_ extract 2 2) (|EF_WDT32_WB_wrapper#19| state)) #b1) (= ((_ extract 3 3) (|EF_WDT32_WB_wrapper#19| state)) #b1) (= ((_ extract 4 4) (|EF_WDT32_WB_wrapper#19| state)) #b1) (= ((_ extract 5 5) (|EF_WDT32_WB_wrapper#19| state)) #b1) (= ((_ extract 6 6) (|EF_WDT32_WB_wrapper#19| state)) #b1) (= ((_ extract 7 7) (|EF_WDT32_WB_wrapper#19| state)) #b1) (= ((_ extract 8 8) (|EF_WDT32_WB_wrapper#19| state)) #b1) (= ((_ extract 9 9) (|EF_WDT32_WB_wrapper#19| state)) #b1) (= ((_ extract 10 10) (|EF_WDT32_WB_wrapper#19| state)) #b1) (= ((_ extract 11 11) (|EF_WDT32_WB_wrapper#19| state)) #b1) (= ((_ extract 12 12) (|EF_WDT32_WB_wrapper#19| state)) #b1) (= ((_ extract 13 13) (|EF_WDT32_WB_wrapper#19| state)) #b1) (= ((_ extract 14 14) (|EF_WDT32_WB_wrapper#19| state)) #b1) (= ((_ extract 15 15) (|EF_WDT32_WB_wrapper#19| state)) #b1)))) ; $flatten\u_ef_wdt.$eq$watchdog.v:131$28_Y
(define-fun |EF_WDT32_WB_wrapper#36| ((state |EF_WDT32_WB_wrapper_s|)) (_ BitVec 32) (ite (|EF_WDT32_WB_wrapper#35| state) (|EF_WDT32_WB_wrapper#15| state) (|EF_WDT32_WB_wrapper#34| state))) ; \u_ef_wdt.dat_o
; yosys-smt2-wire u_ef_wdt.dat_o 32
(define-fun |EF_WDT32_WB_wrapper_n u_ef_wdt.dat_o| ((state |EF_WDT32_WB_wrapper_s|)) (_ BitVec 32) (|EF_WDT32_WB_wrapper#36| state))
; yosys-smt2-wire u_ef_wdt.instance_to_wrap.WDTEN 1
(define-fun |EF_WDT32_WB_wrapper_n u_ef_wdt.instance_to_wrap.WDTEN| ((state |EF_WDT32_WB_wrapper_s|)) Bool (= ((_ extract 0 0) (|EF_WDT32_WB_wrapper#13| state)) #b1))
; yosys-smt2-wire u_ef_wdt.instance_to_wrap.WDTLOAD 32
(define-fun |EF_WDT32_WB_wrapper_n u_ef_wdt.instance_to_wrap.WDTLOAD| ((state |EF_WDT32_WB_wrapper_s|)) (_ BitVec 32) (|EF_WDT32_WB_wrapper#14| state))
; yosys-smt2-wire u_ef_wdt.instance_to_wrap.WDTMR 32
(define-fun |EF_WDT32_WB_wrapper_n u_ef_wdt.instance_to_wrap.WDTMR| ((state |EF_WDT32_WB_wrapper_s|)) (_ BitVec 32) (|EF_WDT32_WB_wrapper#15| state))
; yosys-smt2-wire u_ef_wdt.instance_to_wrap.WDTTO 1
(define-fun |EF_WDT32_WB_wrapper_n u_ef_wdt.instance_to_wrap.WDTTO| ((state |EF_WDT32_WB_wrapper_s|)) Bool (= ((_ extract 0 0) (|EF_WDT32_WB_wrapper#17| state)) #b1))
; yosys-smt2-wire u_ef_wdt.instance_to_wrap.clk 1
; yosys-smt2-clock u_ef_wdt.instance_to_wrap.clk posedge
(define-fun |EF_WDT32_WB_wrapper_n u_ef_wdt.instance_to_wrap.clk| ((state |EF_WDT32_WB_wrapper_s|)) Bool (|EF_WDT32_WB_wrapper#20| state))
; yosys-smt2-wire u_ef_wdt.instance_to_wrap.rst_n 1
(define-fun |EF_WDT32_WB_wrapper_n u_ef_wdt.instance_to_wrap.rst_n| ((state |EF_WDT32_WB_wrapper_s|)) Bool (= ((_ extract 0 0) (|EF_WDT32_WB_wrapper#8| state)) #b1))
; yosys-smt2-wire u_ef_wdt.load_REG 32
(define-fun |EF_WDT32_WB_wrapper_n u_ef_wdt.load_REG| ((state |EF_WDT32_WB_wrapper_s|)) (_ BitVec 32) (|EF_WDT32_WB_wrapper#14| state))
; yosys-smt2-wire u_ef_wdt.rst_n 1
(define-fun |EF_WDT32_WB_wrapper_n u_ef_wdt.rst_n| ((state |EF_WDT32_WB_wrapper_s|)) Bool (= ((_ extract 0 0) (|EF_WDT32_WB_wrapper#8| state)) #b1))
(declare-fun |EF_WDT32_WB_wrapper#37| (|EF_WDT32_WB_wrapper_s|) (_ BitVec 4)) ; \wb_sel_i
; yosys-smt2-wire u_ef_wdt.sel_i 4
(define-fun |EF_WDT32_WB_wrapper_n u_ef_wdt.sel_i| ((state |EF_WDT32_WB_wrapper_s|)) (_ BitVec 4) (|EF_WDT32_WB_wrapper#37| state))
(declare-fun |EF_WDT32_WB_wrapper#38| (|EF_WDT32_WB_wrapper_s|) Bool) ; \wb_stb_i
; yosys-smt2-wire u_ef_wdt.stb_i 1
(define-fun |EF_WDT32_WB_wrapper_n u_ef_wdt.stb_i| ((state |EF_WDT32_WB_wrapper_s|)) Bool (|EF_WDT32_WB_wrapper#38| state))
; yosys-smt2-wire u_ef_wdt.timer_WIRE 32
(define-fun |EF_WDT32_WB_wrapper_n u_ef_wdt.timer_WIRE| ((state |EF_WDT32_WB_wrapper_s|)) (_ BitVec 32) (|EF_WDT32_WB_wrapper#15| state))
(define-fun |EF_WDT32_WB_wrapper#39| ((state |EF_WDT32_WB_wrapper_s|)) (_ BitVec 1) (bvand (ite (|EF_WDT32_WB_wrapper#21| state) #b1 #b0) (ite (|EF_WDT32_WB_wrapper#38| state) #b1 #b0))) ; \u_ef_wdt.wb_valid
; yosys-smt2-wire u_ef_wdt.wb_valid 1
(define-fun |EF_WDT32_WB_wrapper_n u_ef_wdt.wb_valid| ((state |EF_WDT32_WB_wrapper_s|)) Bool (= ((_ extract 0 0) (|EF_WDT32_WB_wrapper#39| state)) #b1))
(declare-fun |EF_WDT32_WB_wrapper#40| (|EF_WDT32_WB_wrapper_s|) (_ BitVec 1)) ; \wb_we_i
(define-fun |EF_WDT32_WB_wrapper#41| ((state |EF_WDT32_WB_wrapper_s|)) (_ BitVec 1) (bvand (|EF_WDT32_WB_wrapper#40| state) (|EF_WDT32_WB_wrapper#39| state))) ; \u_ef_wdt.wb_we
; yosys-smt2-wire u_ef_wdt.wb_we 1
(define-fun |EF_WDT32_WB_wrapper_n u_ef_wdt.wb_we| ((state |EF_WDT32_WB_wrapper_s|)) Bool (= ((_ extract 0 0) (|EF_WDT32_WB_wrapper#41| state)) #b1))
; yosys-smt2-wire u_ef_wdt.wdtto 1
(define-fun |EF_WDT32_WB_wrapper_n u_ef_wdt.wdtto| ((state |EF_WDT32_WB_wrapper_s|)) Bool (= ((_ extract 0 0) (|EF_WDT32_WB_wrapper#17| state)) #b1))
; yosys-smt2-wire u_ef_wdt.we_i 1
(define-fun |EF_WDT32_WB_wrapper_n u_ef_wdt.we_i| ((state |EF_WDT32_WB_wrapper_s|)) Bool (= ((_ extract 0 0) (|EF_WDT32_WB_wrapper#40| state)) #b1))
; yosys-smt2-output wb_ack_o 1
; yosys-smt2-wire wb_ack_o 1
(define-fun |EF_WDT32_WB_wrapper_n wb_ack_o| ((state |EF_WDT32_WB_wrapper_s|)) Bool (= ((_ extract 0 0) (|EF_WDT32_WB_wrapper#18| state)) #b1))
; yosys-smt2-input wb_adr_i 32
; yosys-smt2-wire wb_adr_i 32
; yosys-smt2-witness {"offset": 0, "path": ["\\wb_adr_i"], "smtname": "wb_adr_i", "smtoffset": 0, "type": "input", "width": 32}
(define-fun |EF_WDT32_WB_wrapper_n wb_adr_i| ((state |EF_WDT32_WB_wrapper_s|)) (_ BitVec 32) (|EF_WDT32_WB_wrapper#19| state))
; yosys-smt2-input wb_clk_i 1
; yosys-smt2-wire wb_clk_i 1
; yosys-smt2-clock wb_clk_i posedge
; yosys-smt2-witness {"offset": 0, "path": ["\\wb_clk_i"], "smtname": "wb_clk_i", "smtoffset": 0, "type": "posedge", "width": 1}
; yosys-smt2-witness {"offset": 0, "path": ["\\wb_clk_i"], "smtname": "wb_clk_i", "smtoffset": 0, "type": "input", "width": 1}
(define-fun |EF_WDT32_WB_wrapper_n wb_clk_i| ((state |EF_WDT32_WB_wrapper_s|)) Bool (|EF_WDT32_WB_wrapper#20| state))
; yosys-smt2-input wb_cyc_i 1
; yosys-smt2-wire wb_cyc_i 1
; yosys-smt2-witness {"offset": 0, "path": ["\\wb_cyc_i"], "smtname": "wb_cyc_i", "smtoffset": 0, "type": "input", "width": 1}
(define-fun |EF_WDT32_WB_wrapper_n wb_cyc_i| ((state |EF_WDT32_WB_wrapper_s|)) Bool (|EF_WDT32_WB_wrapper#21| state))
; yosys-smt2-input wb_dat_i 32
; yosys-smt2-wire wb_dat_i 32
; yosys-smt2-witness {"offset": 0, "path": ["\\wb_dat_i"], "smtname": "wb_dat_i", "smtoffset": 0, "type": "input", "width": 32}
(define-fun |EF_WDT32_WB_wrapper_n wb_dat_i| ((state |EF_WDT32_WB_wrapper_s|)) (_ BitVec 32) (|EF_WDT32_WB_wrapper#22| state))
; yosys-smt2-output wb_dat_o 32
; yosys-smt2-wire wb_dat_o 32
(define-fun |EF_WDT32_WB_wrapper_n wb_dat_o| ((state |EF_WDT32_WB_wrapper_s|)) (_ BitVec 32) (|EF_WDT32_WB_wrapper#36| state))
; yosys-smt2-output wb_err_o 1
; yosys-smt2-wire wb_err_o 1
(define-fun |EF_WDT32_WB_wrapper_n wb_err_o| ((state |EF_WDT32_WB_wrapper_s|)) Bool false)
; yosys-smt2-input wb_rst_ni 1
; yosys-smt2-wire wb_rst_ni 1
; yosys-smt2-witness {"offset": 0, "path": ["\\wb_rst_ni"], "smtname": "wb_rst_ni", "smtoffset": 0, "type": "input", "width": 1}
(define-fun |EF_WDT32_WB_wrapper_n wb_rst_ni| ((state |EF_WDT32_WB_wrapper_s|)) Bool (= ((_ extract 0 0) (|EF_WDT32_WB_wrapper#8| state)) #b1))
; yosys-smt2-input wb_sel_i 4
; yosys-smt2-wire wb_sel_i 4
; yosys-smt2-witness {"offset": 0, "path": ["\\wb_sel_i"], "smtname": "wb_sel_i", "smtoffset": 0, "type": "input", "width": 4}
(define-fun |EF_WDT32_WB_wrapper_n wb_sel_i| ((state |EF_WDT32_WB_wrapper_s|)) (_ BitVec 4) (|EF_WDT32_WB_wrapper#37| state))
; yosys-smt2-input wb_stb_i 1
; yosys-smt2-wire wb_stb_i 1
; yosys-smt2-witness {"offset": 0, "path": ["\\wb_stb_i"], "smtname": "wb_stb_i", "smtoffset": 0, "type": "input", "width": 1}
(define-fun |EF_WDT32_WB_wrapper_n wb_stb_i| ((state |EF_WDT32_WB_wrapper_s|)) Bool (|EF_WDT32_WB_wrapper#38| state))
; yosys-smt2-input wb_we_i 1
; yosys-smt2-wire wb_we_i 1
; yosys-smt2-witness {"offset": 0, "path": ["\\wb_we_i"], "smtname": "wb_we_i", "smtoffset": 0, "type": "input", "width": 1}
(define-fun |EF_WDT32_WB_wrapper_n wb_we_i| ((state |EF_WDT32_WB_wrapper_s|)) Bool (= ((_ extract 0 0) (|EF_WDT32_WB_wrapper#40| state)) #b1))
(define-fun |EF_WDT32_WB_wrapper#42| ((state |EF_WDT32_WB_wrapper_s|)) (_ BitVec 1) (bvnot (ite (|EF_WDT32_WB_wrapper#20| state) #b1 #b0))) ; $auto$rtlil.cc:3255:Not$165
; yosys-smt2-assume 0 $auto$formalff.cc:987:execute$166
(define-fun |EF_WDT32_WB_wrapper_u 0| ((state |EF_WDT32_WB_wrapper_s|)) Bool (or (= ((_ extract 0 0) (|EF_WDT32_WB_wrapper#42| state)) #b1) (not true))) ; $auto$formalff.cc:987:execute$166
(define-fun |EF_WDT32_WB_wrapper#43| ((state |EF_WDT32_WB_wrapper_s|)) (_ BitVec 32) (bvsub (|EF_WDT32_WB_wrapper#15| state) #b00000000000000000000000000000001)) ; $flatten\u_ef_wdt.\instance_to_wrap.$sub$EF_WDT32.v:44$56_Y
(define-fun |EF_WDT32_WB_wrapper#44| ((state |EF_WDT32_WB_wrapper_s|)) (_ BitVec 32) (ite (= ((_ extract 0 0) (|EF_WDT32_WB_wrapper#17| state)) #b1) (|EF_WDT32_WB_wrapper#14| state) (|EF_WDT32_WB_wrapper#43| state))) ; $flatten\u_ef_wdt.\instance_to_wrap.$procmux$58_Y
(define-fun |EF_WDT32_WB_wrapper#45| ((state |EF_WDT32_WB_wrapper_s|)) (_ BitVec 32) (ite (= ((_ extract 0 0) (|EF_WDT32_WB_wrapper#13| state)) #b1) (|EF_WDT32_WB_wrapper#44| state) (|EF_WDT32_WB_wrapper#14| state))) ; $flatten\u_ef_wdt.\instance_to_wrap.$0\WDTMR[31:0]
(define-fun |EF_WDT32_WB_wrapper#46| ((state |EF_WDT32_WB_wrapper_s|)) (_ BitVec 32) (ite (= ((_ extract 0 0) (|EF_WDT32_WB_wrapper#8| state)) #b1) (|EF_WDT32_WB_wrapper#45| state) #b00000000000000000000000000000000)) ; $auto$rtlil.cc:3390:Mux$139
(define-fun |EF_WDT32_WB_wrapper#47| ((state |EF_WDT32_WB_wrapper_s|)) (_ BitVec 1) (bvnot (|EF_WDT32_WB_wrapper#18| state))) ; $flatten\u_ef_wdt.$not$watchdog.v:142$48_Y
(define-fun |EF_WDT32_WB_wrapper#48| ((state |EF_WDT32_WB_wrapper_s|)) (_ BitVec 1) (bvand (|EF_WDT32_WB_wrapper#39| state) (|EF_WDT32_WB_wrapper#47| state))) ; $flatten\u_ef_wdt.$and$watchdog.v:142$49_Y
(define-fun |EF_WDT32_WB_wrapper#49| ((state |EF_WDT32_WB_wrapper_s|)) (_ BitVec 1) (ite (= ((_ extract 0 0) (|EF_WDT32_WB_wrapper#48| state)) #b1) #b1 #b0)) ; $flatten\u_ef_wdt.$0\ack_o[0:0]
(define-fun |EF_WDT32_WB_wrapper#50| ((state |EF_WDT32_WB_wrapper_s|)) (_ BitVec 1) (ite (= ((_ extract 0 0) (|EF_WDT32_WB_wrapper#8| state)) #b1) (|EF_WDT32_WB_wrapper#49| state) #b0)) ; $auto$rtlil.cc:3390:Mux$141
(define-fun |EF_WDT32_WB_wrapper#51| ((state |EF_WDT32_WB_wrapper_s|)) (_ BitVec 1) (bvand (|EF_WDT32_WB_wrapper#41| state) (ite (|EF_WDT32_WB_wrapper#23| state) #b1 #b0))) ; $flatten\u_ef_wdt.$and$watchdog.v:104$24_Y
(define-fun |EF_WDT32_WB_wrapper#52| ((state |EF_WDT32_WB_wrapper_s|)) (_ BitVec 1) (ite (= ((_ extract 0 0) (|EF_WDT32_WB_wrapper#51| state)) #b1) ((_ extract 0 0) (|EF_WDT32_WB_wrapper#22| state)) #b0)) ; $flatten\u_ef_wdt.$0\IC_REG[0:0]
(define-fun |EF_WDT32_WB_wrapper#53| ((state |EF_WDT32_WB_wrapper_s|)) (_ BitVec 1) (ite (= ((_ extract 0 0) (|EF_WDT32_WB_wrapper#8| state)) #b1) (|EF_WDT32_WB_wrapper#52| state) #b0)) ; $auto$rtlil.cc:3390:Mux$143
(define-fun |EF_WDT32_WB_wrapper#54| ((state |EF_WDT32_WB_wrapper_s|)) (_ BitVec 1) (bvand (|EF_WDT32_WB_wrapper#41| state) (ite (|EF_WDT32_WB_wrapper#29| state) #b1 #b0))) ; $flatten\u_ef_wdt.$and$watchdog.v:101$21_Y
(define-fun |EF_WDT32_WB_wrapper#55| ((state |EF_WDT32_WB_wrapper_s|)) (_ BitVec 1) (ite (= ((_ extract 0 0) (|EF_WDT32_WB_wrapper#54| state)) #b1) ((_ extract 0 0) (|EF_WDT32_WB_wrapper#22| state)) (|EF_WDT32_WB_wrapper#4| state))) ; $auto$rtlil.cc:3390:Mux$145
(define-fun |EF_WDT32_WB_wrapper#56| ((state |EF_WDT32_WB_wrapper_s|)) (_ BitVec 1) (ite (= ((_ extract 0 0) (|EF_WDT32_WB_wrapper#8| state)) #b1) (|EF_WDT32_WB_wrapper#55| state) #b0)) ; $auto$rtlil.cc:3390:Mux$147
(define-fun |EF_WDT32_WB_wrapper#57| ((state |EF_WDT32_WB_wrapper_s|)) (_ BitVec 1) (bvand (|EF_WDT32_WB_wrapper#41| state) (ite (|EF_WDT32_WB_wrapper#33| state) #b1 #b0))) ; $flatten\u_ef_wdt.$and$watchdog.v:81$11_Y
(define-fun |EF_WDT32_WB_wrapper#58| ((state |EF_WDT32_WB_wrapper_s|)) (_ BitVec 32) (ite (= ((_ extract 0 0) (|EF_WDT32_WB_wrapper#57| state)) #b1) (|EF_WDT32_WB_wrapper#22| state) (|EF_WDT32_WB_wrapper#3| state))) ; $auto$rtlil.cc:3390:Mux$149
(define-fun |EF_WDT32_WB_wrapper#59| ((state |EF_WDT32_WB_wrapper_s|)) (_ BitVec 32) (ite (= ((_ extract 0 0) (|EF_WDT32_WB_wrapper#8| state)) #b1) (|EF_WDT32_WB_wrapper#58| state) #b00000000000000000000000000000000)) ; $auto$rtlil.cc:3390:Mux$151
(define-fun |EF_WDT32_WB_wrapper#60| ((state |EF_WDT32_WB_wrapper_s|)) (_ BitVec 1) (bvand (|EF_WDT32_WB_wrapper#41| state) (ite (|EF_WDT32_WB_wrapper#31| state) #b1 #b0))) ; $flatten\u_ef_wdt.$and$watchdog.v:87$14_Y
(define-fun |EF_WDT32_WB_wrapper#61| ((state |EF_WDT32_WB_wrapper_s|)) (_ BitVec 1) (ite (= ((_ extract 0 0) (|EF_WDT32_WB_wrapper#60| state)) #b1) ((_ extract 0 0) (|EF_WDT32_WB_wrapper#22| state)) (|EF_WDT32_WB_wrapper#2| state))) ; $auto$rtlil.cc:3390:Mux$153
(define-fun |EF_WDT32_WB_wrapper#62| ((state |EF_WDT32_WB_wrapper_s|)) (_ BitVec 1) (ite (= ((_ extract 0 0) (|EF_WDT32_WB_wrapper#8| state)) #b1) (|EF_WDT32_WB_wrapper#61| state) #b0)) ; $auto$rtlil.cc:3390:Mux$155
(define-fun |EF_WDT32_WB_wrapper#63| ((state |EF_WDT32_WB_wrapper_s|)) (_ BitVec 1) (ite (= ((_ extract 0 0) (|EF_WDT32_WB_wrapper#17| state)) #b1) #b1 (|EF_WDT32_WB_wrapper#0| state))) ; $flatten\u_ef_wdt.$procmux$66_Y
(define-fun |EF_WDT32_WB_wrapper#64| ((state |EF_WDT32_WB_wrapper_s|)) (_ BitVec 1) (ite (= ((_ extract 0 0) (|EF_WDT32_WB_wrapper#12| state)) #b1) #b0 (|EF_WDT32_WB_wrapper#63| state))) ; $flatten\u_ef_wdt.$0\RIS_REG[0:0]
(define-fun |EF_WDT32_WB_wrapper#65| ((state |EF_WDT32_WB_wrapper_s|)) Bool (or  (= ((_ extract 0 0) (|EF_WDT32_WB_wrapper#17| state)) #b1) (= ((_ extract 0 0) (|EF_WDT32_WB_wrapper#12| state)) #b1))) ; $flatten\u_ef_wdt.$auto$opt_dff.cc:234:make_patterns_logic$114
(define-fun |EF_WDT32_WB_wrapper#66| ((state |EF_WDT32_WB_wrapper_s|)) (_ BitVec 1) (ite (|EF_WDT32_WB_wrapper#65| state) (|EF_WDT32_WB_wrapper#64| state) (|EF_WDT32_WB_wrapper#1| state))) ; $auto$rtlil.cc:3390:Mux$157
(define-fun |EF_WDT32_WB_wrapper#67| ((state |EF_WDT32_WB_wrapper_s|)) (_ BitVec 1) (ite (= ((_ extract 0 0) (|EF_WDT32_WB_wrapper#8| state)) #b1) (|EF_WDT32_WB_wrapper#66| state) #b0)) ; $auto$rtlil.cc:3390:Mux$159
(define-fun |EF_WDT32_WB_wrapper_a| ((state |EF_WDT32_WB_wrapper_s|)) Bool true)
(define-fun |EF_WDT32_WB_wrapper_u| ((state |EF_WDT32_WB_wrapper_s|)) Bool 
  (|EF_WDT32_WB_wrapper_u 0| state)
)
(define-fun |EF_WDT32_WB_wrapper_i| ((state |EF_WDT32_WB_wrapper_s|)) Bool true)
(define-fun |EF_WDT32_WB_wrapper_h| ((state |EF_WDT32_WB_wrapper_s|)) Bool true)
(define-fun |EF_WDT32_WB_wrapper_t| ((state |EF_WDT32_WB_wrapper_s|) (next_state |EF_WDT32_WB_wrapper_s|)) Bool (and
  (= (|EF_WDT32_WB_wrapper#46| state) (|EF_WDT32_WB_wrapper#7| next_state)) ; $flatten/u_ef_wdt./instance_to_wrap.$procdff$86 \_witness_.anyinit_flatten_u_ef_wdt__instance_to_wrap__procdff_86
  (= (|EF_WDT32_WB_wrapper#50| state) (|EF_WDT32_WB_wrapper#6| next_state)) ; $flatten/u_ef_wdt.$procdff$89 \_witness_.anyinit_flatten_u_ef_wdt__procdff_89
  (= (|EF_WDT32_WB_wrapper#53| state) (|EF_WDT32_WB_wrapper#5| next_state)) ; $flatten/u_ef_wdt.$procdff$100 \_witness_.anyinit_flatten_u_ef_wdt__procdff_100
  (= (|EF_WDT32_WB_wrapper#56| state) (|EF_WDT32_WB_wrapper#4| next_state)) ; $flatten/u_ef_wdt.$auto$ff.cc:337:slice$120 \_witness_.anyinit_flatten_u_ef_wdt__auto_ff_cc_337_slice_120
  (= (|EF_WDT32_WB_wrapper#59| state) (|EF_WDT32_WB_wrapper#3| next_state)) ; $flatten/u_ef_wdt.$auto$ff.cc:337:slice$119 \_witness_.anyinit_flatten_u_ef_wdt__auto_ff_cc_337_slice_119
  (= (|EF_WDT32_WB_wrapper#62| state) (|EF_WDT32_WB_wrapper#2| next_state)) ; $flatten/u_ef_wdt.$auto$ff.cc:337:slice$116 \_witness_.anyinit_flatten_u_ef_wdt__auto_ff_cc_337_slice_116
  (= (|EF_WDT32_WB_wrapper#67| state) (|EF_WDT32_WB_wrapper#1| next_state)) ; $flatten/u_ef_wdt.$auto$ff.cc:337:slice$113 \_witness_.anyinit_flatten_u_ef_wdt__auto_ff_cc_337_slice_113
)) ; end of module EF_WDT32_WB_wrapper
; yosys-smt2-topmod EF_WDT32_WB_wrapper
; end of yosys output
